GLPSOL: GLPK LP/MIP Solver, v4.65
Parameter(s) specified in the command line:
 --check -m C:\Users\abhis\repositories\CLEWs\visualisation\model_new.txt
 -d data.txt --wlp cbcinput.lp --log glpsol_log.txt
Reading model section from C:\Users\abhis\repositories\CLEWs\visualisation\model_new.txt...
(unknown):0: unable to open C:\Users\abhis\repositories\CLEWs\visualisation\model_new.txt - No such file or directory
Context:                                                             
MathProg model processing error
